p tw 160 32801 2 
1 81 
1 84 
1 86 
1 88 
1 90 
1 92 
1 94 
1 96 
1 98 
1 100 
1 102 
1 104 
1 106 
1 108 
1 110 
1 112 
1 114 
1 116 
1 118 
1 120 
1 121 
1 124 
1 126 
1 128 
1 130 
1 132 
1 134 
1 136 
1 138 
1 140 
1 142 
1 144 
1 146 
1 148 
1 150 
1 152 
1 154 
1 156 
1 158 
1 160 
2 82 
2 83 
2 85 
2 87 
2 89 
2 91 
2 93 
2 95 
2 97 
2 99 
2 101 
2 103 
2 105 
2 107 
2 109 
2 111 
2 113 
2 115 
2 117 
2 119 
2 122 
2 123 
2 125 
2 127 
2 129 
2 131 
2 133 
2 135 
2 137 
2 139 
2 141 
2 143 
2 145 
2 147 
2 149 
2 151 
2 153 
2 155 
2 157 
2 159 
3 4 
3 81 
3 83 
3 86 
3 87 
3 89 
3 92 
3 94 
3 96 
3 98 
3 99 
3 102 
3 103 
3 106 
3 107 
3 109 
3 111 
3 113 
3 116 
3 118 
3 119 
3 121 
3 123 
3 126 
3 127 
3 129 
3 132 
3 134 
3 136 
3 138 
3 139 
3 142 
3 143 
3 146 
3 147 
3 149 
3 151 
3 153 
3 156 
3 158 
3 159 
4 82 
4 84 
4 85 
4 88 
4 90 
4 91 
4 93 
4 95 
4 97 
4 100 
4 101 
4 104 
4 105 
4 108 
4 110 
4 112 
4 114 
4 115 
4 117 
4 120 
4 122 
4 124 
4 125 
4 128 
4 130 
4 131 
4 133 
4 135 
4 137 
4 140 
4 141 
4 144 
4 145 
4 148 
4 150 
4 152 
4 154 
4 155 
4 157 
4 160 
5 6 
5 81 
5 83 
5 85 
5 88 
5 89 
5 91 
5 94 
5 96 
5 98 
5 100 
5 101 
5 104 
5 105 
5 108 
5 109 
5 111 
5 113 
5 115 
5 118 
5 120 
5 121 
5 123 
5 125 
5 128 
5 129 
5 131 
5 134 
5 136 
5 138 
5 140 
5 141 
5 144 
5 145 
5 148 
5 149 
5 151 
5 153 
5 155 
5 158 
5 160 
6 82 
6 84 
6 86 
6 87 
6 90 
6 92 
6 93 
6 95 
6 97 
6 99 
6 102 
6 103 
6 106 
6 107 
6 110 
6 112 
6 114 
6 116 
6 117 
6 119 
6 122 
6 124 
6 126 
6 127 
6 130 
6 132 
6 133 
6 135 
6 137 
6 139 
6 142 
6 143 
6 146 
6 147 
6 150 
6 152 
6 154 
6 156 
6 157 
6 159 
7 8 
7 81 
7 84 
7 85 
7 87 
7 90 
7 91 
7 93 
7 96 
7 98 
7 100 
7 102 
7 103 
7 106 
7 107 
7 110 
7 111 
7 113 
7 115 
7 117 
7 120 
7 121 
7 124 
7 125 
7 127 
7 130 
7 131 
7 133 
7 136 
7 138 
7 140 
7 142 
7 143 
7 146 
7 147 
7 150 
7 151 
7 153 
7 155 
7 157 
7 160 
8 82 
8 83 
8 86 
8 88 
8 89 
8 92 
8 94 
8 95 
8 97 
8 99 
8 101 
8 104 
8 105 
8 108 
8 109 
8 112 
8 114 
8 116 
8 118 
8 119 
8 122 
8 123 
8 126 
8 128 
8 129 
8 132 
8 134 
8 135 
8 137 
8 139 
8 141 
8 144 
8 145 
8 148 
8 149 
8 152 
8 154 
8 156 
8 158 
8 159 
9 10 
9 81 
9 84 
9 86 
9 87 
9 89 
9 92 
9 93 
9 95 
9 98 
9 100 
9 102 
9 104 
9 105 
9 108 
9 109 
9 112 
9 113 
9 115 
9 117 
9 119 
9 121 
9 124 
9 126 
9 127 
9 129 
9 132 
9 133 
9 135 
9 138 
9 140 
9 142 
9 144 
9 145 
9 148 
9 149 
9 152 
9 153 
9 155 
9 157 
9 159 
10 82 
10 83 
10 85 
10 88 
10 90 
10 91 
10 94 
10 96 
10 97 
10 99 
10 101 
10 103 
10 106 
10 107 
10 110 
10 111 
10 114 
10 116 
10 118 
10 120 
10 122 
10 123 
10 125 
10 128 
10 130 
10 131 
10 134 
10 136 
10 137 
10 139 
10 141 
10 143 
10 146 
10 147 
10 150 
10 151 
10 154 
10 156 
10 158 
10 160 
11 12 
11 81 
11 83 
11 86 
11 88 
11 89 
11 91 
11 94 
11 95 
11 97 
11 100 
11 102 
11 104 
11 106 
11 107 
11 110 
11 111 
11 114 
11 115 
11 117 
11 119 
11 121 
11 123 
11 126 
11 128 
11 129 
11 131 
11 134 
11 135 
11 137 
11 140 
11 142 
11 144 
11 146 
11 147 
11 150 
11 151 
11 154 
11 155 
11 157 
11 159 
12 82 
12 84 
12 85 
12 87 
12 90 
12 92 
12 93 
12 96 
12 98 
12 99 
12 101 
12 103 
12 105 
12 108 
12 109 
12 112 
12 113 
12 116 
12 118 
12 120 
12 122 
12 124 
12 125 
12 127 
12 130 
12 132 
12 133 
12 136 
12 138 
12 139 
12 141 
12 143 
12 145 
12 148 
12 149 
12 152 
12 153 
12 156 
12 158 
12 160 
13 14 
13 81 
13 83 
13 85 
13 88 
13 90 
13 91 
13 93 
13 96 
13 97 
13 99 
13 102 
13 104 
13 106 
13 108 
13 109 
13 112 
13 113 
13 116 
13 117 
13 119 
13 121 
13 123 
13 125 
13 128 
13 130 
13 131 
13 133 
13 136 
13 137 
13 139 
13 142 
13 144 
13 146 
13 148 
13 149 
13 152 
13 153 
13 156 
13 157 
13 159 
14 82 
14 84 
14 86 
14 87 
14 89 
14 92 
14 94 
14 95 
14 98 
14 100 
14 101 
14 103 
14 105 
14 107 
14 110 
14 111 
14 114 
14 115 
14 118 
14 120 
14 122 
14 124 
14 126 
14 127 
14 129 
14 132 
14 134 
14 135 
14 138 
14 140 
14 141 
14 143 
14 145 
14 147 
14 150 
14 151 
14 154 
14 155 
14 158 
14 160 
15 16 
15 81 
15 83 
15 85 
15 87 
15 90 
15 92 
15 93 
15 95 
15 98 
15 99 
15 101 
15 104 
15 106 
15 108 
15 110 
15 111 
15 114 
15 115 
15 118 
15 119 
15 121 
15 123 
15 125 
15 127 
15 130 
15 132 
15 133 
15 135 
15 138 
15 139 
15 141 
15 144 
15 146 
15 148 
15 150 
15 151 
15 154 
15 155 
15 158 
15 159 
16 82 
16 84 
16 86 
16 88 
16 89 
16 91 
16 94 
16 96 
16 97 
16 100 
16 102 
16 103 
16 105 
16 107 
16 109 
16 112 
16 113 
16 116 
16 117 
16 120 
16 122 
16 124 
16 126 
16 128 
16 129 
16 131 
16 134 
16 136 
16 137 
16 140 
16 142 
16 143 
16 145 
16 147 
16 149 
16 152 
16 153 
16 156 
16 157 
16 160 
17 18 
17 81 
17 83 
17 85 
17 87 
17 89 
17 92 
17 94 
17 95 
17 97 
17 100 
17 101 
17 103 
17 106 
17 108 
17 110 
17 112 
17 113 
17 116 
17 117 
17 120 
17 121 
17 123 
17 125 
17 127 
17 129 
17 132 
17 134 
17 135 
17 137 
17 140 
17 141 
17 143 
17 146 
17 148 
17 150 
17 152 
17 153 
17 156 
17 157 
17 160 
18 82 
18 84 
18 86 
18 88 
18 90 
18 91 
18 93 
18 96 
18 98 
18 99 
18 102 
18 104 
18 105 
18 107 
18 109 
18 111 
18 114 
18 115 
18 118 
18 119 
18 122 
18 124 
18 126 
18 128 
18 130 
18 131 
18 133 
18 136 
18 138 
18 139 
18 142 
18 144 
18 145 
18 147 
18 149 
18 151 
18 154 
18 155 
18 158 
18 159 
19 20 
19 81 
19 84 
19 85 
19 87 
19 89 
19 91 
19 94 
19 96 
19 97 
19 99 
19 102 
19 103 
19 105 
19 108 
19 110 
19 112 
19 114 
19 115 
19 118 
19 119 
19 121 
19 124 
19 125 
19 127 
19 129 
19 131 
19 134 
19 136 
19 137 
19 139 
19 142 
19 143 
19 145 
19 148 
19 150 
19 152 
19 154 
19 155 
19 158 
19 159 
20 82 
20 83 
20 86 
20 88 
20 90 
20 92 
20 93 
20 95 
20 98 
20 100 
20 101 
20 104 
20 106 
20 107 
20 109 
20 111 
20 113 
20 116 
20 117 
20 120 
20 122 
20 123 
20 126 
20 128 
20 130 
20 132 
20 133 
20 135 
20 138 
20 140 
20 141 
20 144 
20 146 
20 147 
20 149 
20 151 
20 153 
20 156 
20 157 
20 160 
21 22 
21 81 
21 83 
21 86 
21 87 
21 89 
21 91 
21 93 
21 96 
21 98 
21 99 
21 101 
21 104 
21 105 
21 107 
21 110 
21 112 
21 114 
21 116 
21 117 
21 120 
21 121 
21 123 
21 126 
21 127 
21 129 
21 131 
21 133 
21 136 
21 138 
21 139 
21 141 
21 144 
21 145 
21 147 
21 150 
21 152 
21 154 
21 156 
21 157 
21 160 
22 82 
22 84 
22 85 
22 88 
22 90 
22 92 
22 94 
22 95 
22 97 
22 100 
22 102 
22 103 
22 106 
22 108 
22 109 
22 111 
22 113 
22 115 
22 118 
22 119 
22 122 
22 124 
22 125 
22 128 
22 130 
22 132 
22 134 
22 135 
22 137 
22 140 
22 142 
22 143 
22 146 
22 148 
22 149 
22 151 
22 153 
22 155 
22 158 
22 159 
23 24 
23 81 
23 84 
23 85 
23 88 
23 89 
23 91 
23 93 
23 95 
23 98 
23 100 
23 101 
23 103 
23 106 
23 107 
23 109 
23 112 
23 114 
23 116 
23 118 
23 119 
23 121 
23 124 
23 125 
23 128 
23 129 
23 131 
23 133 
23 135 
23 138 
23 140 
23 141 
23 143 
23 146 
23 147 
23 149 
23 152 
23 154 
23 156 
23 158 
23 159 
24 82 
24 83 
24 86 
24 87 
24 90 
24 92 
24 94 
24 96 
24 97 
24 99 
24 102 
24 104 
24 105 
24 108 
24 110 
24 111 
24 113 
24 115 
24 117 
24 120 
24 122 
24 123 
24 126 
24 127 
24 130 
24 132 
24 134 
24 136 
24 137 
24 139 
24 142 
24 144 
24 145 
24 148 
24 150 
24 151 
24 153 
24 155 
24 157 
24 160 
25 26 
25 81 
25 83 
25 86 
25 87 
25 90 
25 91 
25 93 
25 95 
25 97 
25 100 
25 102 
25 103 
25 105 
25 108 
25 109 
25 111 
25 114 
25 116 
25 118 
25 120 
25 121 
25 123 
25 126 
25 127 
25 130 
25 131 
25 133 
25 135 
25 137 
25 140 
25 142 
25 143 
25 145 
25 148 
25 149 
25 151 
25 154 
25 156 
25 158 
25 160 
26 82 
26 84 
26 85 
26 88 
26 89 
26 92 
26 94 
26 96 
26 98 
26 99 
26 101 
26 104 
26 106 
26 107 
26 110 
26 112 
26 113 
26 115 
26 117 
26 119 
26 122 
26 124 
26 125 
26 128 
26 129 
26 132 
26 134 
26 136 
26 138 
26 139 
26 141 
26 144 
26 146 
26 147 
26 150 
26 152 
26 153 
26 155 
26 157 
26 159 
27 28 
27 81 
27 84 
27 85 
27 88 
27 89 
27 92 
27 93 
27 95 
27 97 
27 99 
27 102 
27 104 
27 105 
27 107 
27 110 
27 111 
27 113 
27 116 
27 118 
27 120 
27 121 
27 124 
27 125 
27 128 
27 129 
27 132 
27 133 
27 135 
27 137 
27 139 
27 142 
27 144 
27 145 
27 147 
27 150 
27 151 
27 153 
27 156 
27 158 
27 160 
28 82 
28 83 
28 86 
28 87 
28 90 
28 91 
28 94 
28 96 
28 98 
28 100 
28 101 
28 103 
28 106 
28 108 
28 109 
28 112 
28 114 
28 115 
28 117 
28 119 
28 122 
28 123 
28 126 
28 127 
28 130 
28 131 
28 134 
28 136 
28 138 
28 140 
28 141 
28 143 
28 146 
28 148 
28 149 
28 152 
28 154 
28 155 
28 157 
28 159 
29 30 
29 81 
29 84 
29 86 
29 87 
29 90 
29 91 
29 94 
29 95 
29 97 
29 99 
29 101 
29 104 
29 106 
29 107 
29 109 
29 112 
29 113 
29 115 
29 118 
29 120 
29 121 
29 124 
29 126 
29 127 
29 130 
29 131 
29 134 
29 135 
29 137 
29 139 
29 141 
29 144 
29 146 
29 147 
29 149 
29 152 
29 153 
29 155 
29 158 
29 160 
30 82 
30 83 
30 85 
30 88 
30 89 
30 92 
30 93 
30 96 
30 98 
30 100 
30 102 
30 103 
30 105 
30 108 
30 110 
30 111 
30 114 
30 116 
30 117 
30 119 
30 122 
30 123 
30 125 
30 128 
30 129 
30 132 
30 133 
30 136 
30 138 
30 140 
30 142 
30 143 
30 145 
30 148 
30 150 
30 151 
30 154 
30 156 
30 157 
30 159 
31 32 
31 81 
31 84 
31 86 
31 88 
31 89 
31 92 
31 93 
31 96 
31 97 
31 99 
31 101 
31 103 
31 106 
31 108 
31 109 
31 111 
31 114 
31 115 
31 117 
31 120 
31 121 
31 124 
31 126 
31 128 
31 129 
31 132 
31 133 
31 136 
31 137 
31 139 
31 141 
31 143 
31 146 
31 148 
31 149 
31 151 
31 154 
31 155 
31 157 
31 160 
32 82 
32 83 
32 85 
32 87 
32 90 
32 91 
32 94 
32 95 
32 98 
32 100 
32 102 
32 104 
32 105 
32 107 
32 110 
32 112 
32 113 
32 116 
32 118 
32 119 
32 122 
32 123 
32 125 
32 127 
32 130 
32 131 
32 134 
32 135 
32 138 
32 140 
32 142 
32 144 
32 145 
32 147 
32 150 
32 152 
32 153 
32 156 
32 158 
32 159 
33 34 
33 81 
33 84 
33 86 
33 88 
33 90 
33 91 
33 94 
33 95 
33 98 
33 99 
33 101 
33 103 
33 105 
33 108 
33 110 
33 111 
33 113 
33 116 
33 117 
33 119 
33 121 
33 124 
33 126 
33 128 
33 130 
33 131 
33 134 
33 135 
33 138 
33 139 
33 141 
33 143 
33 145 
33 148 
33 150 
33 151 
33 153 
33 156 
33 157 
33 159 
34 82 
34 83 
34 85 
34 87 
34 89 
34 92 
34 93 
34 96 
34 97 
34 100 
34 102 
34 104 
34 106 
34 107 
34 109 
34 112 
34 114 
34 115 
34 118 
34 120 
34 122 
34 123 
34 125 
34 127 
34 129 
34 132 
34 133 
34 136 
34 137 
34 140 
34 142 
34 144 
34 146 
34 147 
34 149 
34 152 
34 154 
34 155 
34 158 
34 160 
35 36 
35 81 
35 83 
35 86 
35 88 
35 90 
35 92 
35 93 
35 96 
35 97 
35 100 
35 101 
35 103 
35 105 
35 107 
35 110 
35 112 
35 113 
35 115 
35 118 
35 119 
35 121 
35 123 
35 126 
35 128 
35 130 
35 132 
35 133 
35 136 
35 137 
35 140 
35 141 
35 143 
35 145 
35 147 
35 150 
35 152 
35 153 
35 155 
35 158 
35 159 
36 82 
36 84 
36 85 
36 87 
36 89 
36 91 
36 94 
36 95 
36 98 
36 99 
36 102 
36 104 
36 106 
36 108 
36 109 
36 111 
36 114 
36 116 
36 117 
36 120 
36 122 
36 124 
36 125 
36 127 
36 129 
36 131 
36 134 
36 135 
36 138 
36 139 
36 142 
36 144 
36 146 
36 148 
36 149 
36 151 
36 154 
36 156 
36 157 
36 160 
37 38 
37 81 
37 83 
37 85 
37 88 
37 90 
37 92 
37 94 
37 95 
37 98 
37 99 
37 102 
37 103 
37 105 
37 107 
37 109 
37 112 
37 114 
37 115 
37 117 
37 120 
37 121 
37 123 
37 125 
37 128 
37 130 
37 132 
37 134 
37 135 
37 138 
37 139 
37 142 
37 143 
37 145 
37 147 
37 149 
37 152 
37 154 
37 155 
37 157 
37 160 
38 82 
38 84 
38 86 
38 87 
38 89 
38 91 
38 93 
38 96 
38 97 
38 100 
38 101 
38 104 
38 106 
38 108 
38 110 
38 111 
38 113 
38 116 
38 118 
38 119 
38 122 
38 124 
38 126 
38 127 
38 129 
38 131 
38 133 
38 136 
38 137 
38 140 
38 141 
38 144 
38 146 
38 148 
38 150 
38 151 
38 153 
38 156 
38 158 
38 159 
39 40 
39 81 
39 84 
39 85 
39 87 
39 90 
39 92 
39 94 
39 96 
39 97 
39 100 
39 101 
39 104 
39 105 
39 107 
39 109 
39 111 
39 114 
39 116 
39 117 
39 119 
39 121 
39 124 
39 125 
39 127 
39 130 
39 132 
39 134 
39 136 
39 137 
39 140 
39 141 
39 144 
39 145 
39 147 
39 149 
39 151 
39 154 
39 156 
39 157 
39 159 
40 82 
40 83 
40 86 
40 88 
40 89 
40 91 
40 93 
40 95 
40 98 
40 99 
40 102 
40 103 
40 106 
40 108 
40 110 
40 112 
40 113 
40 115 
40 118 
40 120 
40 122 
40 123 
40 126 
40 128 
40 129 
40 131 
40 133 
40 135 
40 138 
40 139 
40 142 
40 143 
40 146 
40 148 
40 150 
40 152 
40 153 
40 155 
40 158 
40 160 
41 42 
41 81 
41 84 
41 86 
41 88 
41 90 
41 92 
41 94 
41 96 
41 98 
41 100 
41 102 
41 104 
41 106 
41 108 
41 110 
41 112 
41 114 
41 116 
41 118 
41 120 
41 122 
41 123 
41 125 
41 127 
41 129 
41 131 
41 133 
41 135 
41 137 
41 139 
41 141 
41 143 
41 145 
41 147 
41 149 
41 151 
41 153 
41 155 
41 157 
41 159 
42 82 
42 83 
42 85 
42 87 
42 89 
42 91 
42 93 
42 95 
42 97 
42 99 
42 101 
42 103 
42 105 
42 107 
42 109 
42 111 
42 113 
42 115 
42 117 
42 119 
42 121 
42 124 
42 126 
42 128 
42 130 
42 132 
42 134 
42 136 
42 138 
42 140 
42 142 
42 144 
42 146 
42 148 
42 150 
42 152 
42 154 
42 156 
42 158 
42 160 
43 44 
43 81 
43 83 
43 86 
43 87 
43 89 
43 92 
43 94 
43 96 
43 98 
43 99 
43 102 
43 103 
43 106 
43 107 
43 109 
43 111 
43 113 
43 116 
43 118 
43 119 
43 122 
43 124 
43 125 
43 128 
43 130 
43 131 
43 133 
43 135 
43 137 
43 140 
43 141 
43 144 
43 145 
43 148 
43 150 
43 152 
43 154 
43 155 
43 157 
43 160 
44 82 
44 84 
44 85 
44 88 
44 90 
44 91 
44 93 
44 95 
44 97 
44 100 
44 101 
44 104 
44 105 
44 108 
44 110 
44 112 
44 114 
44 115 
44 117 
44 120 
44 121 
44 123 
44 126 
44 127 
44 129 
44 132 
44 134 
44 136 
44 138 
44 139 
44 142 
44 143 
44 146 
44 147 
44 149 
44 151 
44 153 
44 156 
44 158 
44 159 
45 46 
45 81 
45 83 
45 85 
45 88 
45 89 
45 91 
45 94 
45 96 
45 98 
45 100 
45 101 
45 104 
45 105 
45 108 
45 109 
45 111 
45 113 
45 115 
45 118 
45 120 
45 122 
45 124 
45 126 
45 127 
45 130 
45 132 
45 133 
45 135 
45 137 
45 139 
45 142 
45 143 
45 146 
45 147 
45 150 
45 152 
45 154 
45 156 
45 157 
45 159 
46 82 
46 84 
46 86 
46 87 
46 90 
46 92 
46 93 
46 95 
46 97 
46 99 
46 102 
46 103 
46 106 
46 107 
46 110 
46 112 
46 114 
46 116 
46 117 
46 119 
46 121 
46 123 
46 125 
46 128 
46 129 
46 131 
46 134 
46 136 
46 138 
46 140 
46 141 
46 144 
46 145 
46 148 
46 149 
46 151 
46 153 
46 155 
46 158 
46 160 
47 48 
47 81 
47 84 
47 85 
47 87 
47 90 
47 91 
47 93 
47 96 
47 98 
47 100 
47 102 
47 103 
47 106 
47 107 
47 110 
47 111 
47 113 
47 115 
47 117 
47 120 
47 122 
47 123 
47 126 
47 128 
47 129 
47 132 
47 134 
47 135 
47 137 
47 139 
47 141 
47 144 
47 145 
47 148 
47 149 
47 152 
47 154 
47 156 
47 158 
47 159 
48 82 
48 83 
48 86 
48 88 
48 89 
48 92 
48 94 
48 95 
48 97 
48 99 
48 101 
48 104 
48 105 
48 108 
48 109 
48 112 
48 114 
48 116 
48 118 
48 119 
48 121 
48 124 
48 125 
48 127 
48 130 
48 131 
48 133 
48 136 
48 138 
48 140 
48 142 
48 143 
48 146 
48 147 
48 150 
48 151 
48 153 
48 155 
48 157 
48 160 
49 50 
49 81 
49 84 
49 86 
49 87 
49 89 
49 92 
49 93 
49 95 
49 98 
49 100 
49 102 
49 104 
49 105 
49 108 
49 109 
49 112 
49 113 
49 115 
49 117 
49 119 
49 122 
49 123 
49 125 
49 128 
49 130 
49 131 
49 134 
49 136 
49 137 
49 139 
49 141 
49 143 
49 146 
49 147 
49 150 
49 151 
49 154 
49 156 
49 158 
49 160 
50 82 
50 83 
50 85 
50 88 
50 90 
50 91 
50 94 
50 96 
50 97 
50 99 
50 101 
50 103 
50 106 
50 107 
50 110 
50 111 
50 114 
50 116 
50 118 
50 120 
50 121 
50 124 
50 126 
50 127 
50 129 
50 132 
50 133 
50 135 
50 138 
50 140 
50 142 
50 144 
50 145 
50 148 
50 149 
50 152 
50 153 
50 155 
50 157 
50 159 
51 52 
51 81 
51 83 
51 86 
51 88 
51 89 
51 91 
51 94 
51 95 
51 97 
51 100 
51 102 
51 104 
51 106 
51 107 
51 110 
51 111 
51 114 
51 115 
51 117 
51 119 
51 122 
51 124 
51 125 
51 127 
51 130 
51 132 
51 133 
51 136 
51 138 
51 139 
51 141 
51 143 
51 145 
51 148 
51 149 
51 152 
51 153 
51 156 
51 158 
51 160 
52 82 
52 84 
52 85 
52 87 
52 90 
52 92 
52 93 
52 96 
52 98 
52 99 
52 101 
52 103 
52 105 
52 108 
52 109 
52 112 
52 113 
52 116 
52 118 
52 120 
52 121 
52 123 
52 126 
52 128 
52 129 
52 131 
52 134 
52 135 
52 137 
52 140 
52 142 
52 144 
52 146 
52 147 
52 150 
52 151 
52 154 
52 155 
52 157 
52 159 
53 54 
53 81 
53 83 
53 85 
53 88 
53 90 
53 91 
53 93 
53 96 
53 97 
53 99 
53 102 
53 104 
53 106 
53 108 
53 109 
53 112 
53 113 
53 116 
53 117 
53 119 
53 122 
53 124 
53 126 
53 127 
53 129 
53 132 
53 134 
53 135 
53 138 
53 140 
53 141 
53 143 
53 145 
53 147 
53 150 
53 151 
53 154 
53 155 
53 158 
53 160 
54 82 
54 84 
54 86 
54 87 
54 89 
54 92 
54 94 
54 95 
54 98 
54 100 
54 101 
54 103 
54 105 
54 107 
54 110 
54 111 
54 114 
54 115 
54 118 
54 120 
54 121 
54 123 
54 125 
54 128 
54 130 
54 131 
54 133 
54 136 
54 137 
54 139 
54 142 
54 144 
54 146 
54 148 
54 149 
54 152 
54 153 
54 156 
54 157 
54 159 
55 56 
55 81 
55 83 
55 85 
55 87 
55 90 
55 92 
55 93 
55 95 
55 98 
55 99 
55 101 
55 104 
55 106 
55 108 
55 110 
55 111 
55 114 
55 115 
55 118 
55 119 
55 122 
55 124 
55 126 
55 128 
55 129 
55 131 
55 134 
55 136 
55 137 
55 140 
55 142 
55 143 
55 145 
55 147 
55 149 
55 152 
55 153 
55 156 
55 157 
55 160 
56 82 
56 84 
56 86 
56 88 
56 89 
56 91 
56 94 
56 96 
56 97 
56 100 
56 102 
56 103 
56 105 
56 107 
56 109 
56 112 
56 113 
56 116 
56 117 
56 120 
56 121 
56 123 
56 125 
56 127 
56 130 
56 132 
56 133 
56 135 
56 138 
56 139 
56 141 
56 144 
56 146 
56 148 
56 150 
56 151 
56 154 
56 155 
56 158 
56 159 
57 58 
57 81 
57 83 
57 85 
57 87 
57 89 
57 92 
57 94 
57 95 
57 97 
57 100 
57 101 
57 103 
57 106 
57 108 
57 110 
57 112 
57 113 
57 116 
57 117 
57 120 
57 122 
57 124 
57 126 
57 128 
57 130 
57 131 
57 133 
57 136 
57 138 
57 139 
57 142 
57 144 
57 145 
57 147 
57 149 
57 151 
57 154 
57 155 
57 158 
57 159 
58 82 
58 84 
58 86 
58 88 
58 90 
58 91 
58 93 
58 96 
58 98 
58 99 
58 102 
58 104 
58 105 
58 107 
58 109 
58 111 
58 114 
58 115 
58 118 
58 119 
58 121 
58 123 
58 125 
58 127 
58 129 
58 132 
58 134 
58 135 
58 137 
58 140 
58 141 
58 143 
58 146 
58 148 
58 150 
58 152 
58 153 
58 156 
58 157 
58 160 
59 60 
59 81 
59 84 
59 85 
59 87 
59 89 
59 91 
59 94 
59 96 
59 97 
59 99 
59 102 
59 103 
59 105 
59 108 
59 110 
59 112 
59 114 
59 115 
59 118 
59 119 
59 122 
59 123 
59 126 
59 128 
59 130 
59 132 
59 133 
59 135 
59 138 
59 140 
59 141 
59 144 
59 146 
59 147 
59 149 
59 151 
59 153 
59 156 
59 157 
59 160 
60 82 
60 83 
60 86 
60 88 
60 90 
60 92 
60 93 
60 95 
60 98 
60 100 
60 101 
60 104 
60 106 
60 107 
60 109 
60 111 
60 113 
60 116 
60 117 
60 120 
60 121 
60 124 
60 125 
60 127 
60 129 
60 131 
60 134 
60 136 
60 137 
60 139 
60 142 
60 143 
60 145 
60 148 
60 150 
60 152 
60 154 
60 155 
60 158 
60 159 
61 62 
61 81 
61 83 
61 86 
61 87 
61 89 
61 91 
61 93 
61 96 
61 98 
61 99 
61 101 
61 104 
61 105 
61 107 
61 110 
61 112 
61 114 
61 116 
61 117 
61 120 
61 122 
61 124 
61 125 
61 128 
61 130 
61 132 
61 134 
61 135 
61 137 
61 140 
61 142 
61 143 
61 146 
61 148 
61 149 
61 151 
61 153 
61 155 
61 158 
61 159 
62 82 
62 84 
62 85 
62 88 
62 90 
62 92 
62 94 
62 95 
62 97 
62 100 
62 102 
62 103 
62 106 
62 108 
62 109 
62 111 
62 113 
62 115 
62 118 
62 119 
62 121 
62 123 
62 126 
62 127 
62 129 
62 131 
62 133 
62 136 
62 138 
62 139 
62 141 
62 144 
62 145 
62 147 
62 150 
62 152 
62 154 
62 156 
62 157 
62 160 
63 64 
63 81 
63 84 
63 85 
63 88 
63 89 
63 91 
63 93 
63 95 
63 98 
63 100 
63 101 
63 103 
63 106 
63 107 
63 109 
63 112 
63 114 
63 116 
63 118 
63 119 
63 122 
63 123 
63 126 
63 127 
63 130 
63 132 
63 134 
63 136 
63 137 
63 139 
63 142 
63 144 
63 145 
63 148 
63 150 
63 151 
63 153 
63 155 
63 157 
63 160 
64 82 
64 83 
64 86 
64 87 
64 90 
64 92 
64 94 
64 96 
64 97 
64 99 
64 102 
64 104 
64 105 
64 108 
64 110 
64 111 
64 113 
64 115 
64 117 
64 120 
64 121 
64 124 
64 125 
64 128 
64 129 
64 131 
64 133 
64 135 
64 138 
64 140 
64 141 
64 143 
64 146 
64 147 
64 149 
64 152 
64 154 
64 156 
64 158 
64 159 
65 66 
65 81 
65 83 
65 86 
65 87 
65 90 
65 91 
65 93 
65 95 
65 97 
65 100 
65 102 
65 103 
65 105 
65 108 
65 109 
65 111 
65 114 
65 116 
65 118 
65 120 
65 122 
65 124 
65 125 
65 128 
65 129 
65 132 
65 134 
65 136 
65 138 
65 139 
65 141 
65 144 
65 146 
65 147 
65 150 
65 152 
65 153 
65 155 
65 157 
65 159 
66 82 
66 84 
66 85 
66 88 
66 89 
66 92 
66 94 
66 96 
66 98 
66 99 
66 101 
66 104 
66 106 
66 107 
66 110 
66 112 
66 113 
66 115 
66 117 
66 119 
66 121 
66 123 
66 126 
66 127 
66 130 
66 131 
66 133 
66 135 
66 137 
66 140 
66 142 
66 143 
66 145 
66 148 
66 149 
66 151 
66 154 
66 156 
66 158 
66 160 
67 68 
67 81 
67 84 
67 85 
67 88 
67 89 
67 92 
67 93 
67 95 
67 97 
67 99 
67 102 
67 104 
67 105 
67 107 
67 110 
67 111 
67 113 
67 116 
67 118 
67 120 
67 122 
67 123 
67 126 
67 127 
67 130 
67 131 
67 134 
67 136 
67 138 
67 140 
67 141 
67 143 
67 146 
67 148 
67 149 
67 152 
67 154 
67 155 
67 157 
67 159 
68 82 
68 83 
68 86 
68 87 
68 90 
68 91 
68 94 
68 96 
68 98 
68 100 
68 101 
68 103 
68 106 
68 108 
68 109 
68 112 
68 114 
68 115 
68 117 
68 119 
68 121 
68 124 
68 125 
68 128 
68 129 
68 132 
68 133 
68 135 
68 137 
68 139 
68 142 
68 144 
68 145 
68 147 
68 150 
68 151 
68 153 
68 156 
68 158 
68 160 
69 70 
69 81 
69 84 
69 86 
69 87 
69 90 
69 91 
69 94 
69 95 
69 97 
69 99 
69 101 
69 104 
69 106 
69 107 
69 109 
69 112 
69 113 
69 115 
69 118 
69 120 
69 122 
69 123 
69 125 
69 128 
69 129 
69 132 
69 133 
69 136 
69 138 
69 140 
69 142 
69 143 
69 145 
69 148 
69 150 
69 151 
69 154 
69 156 
69 157 
69 159 
70 82 
70 83 
70 85 
70 88 
70 89 
70 92 
70 93 
70 96 
70 98 
70 100 
70 102 
70 103 
70 105 
70 108 
70 110 
70 111 
70 114 
70 116 
70 117 
70 119 
70 121 
70 124 
70 126 
70 127 
70 130 
70 131 
70 134 
70 135 
70 137 
70 139 
70 141 
70 144 
70 146 
70 147 
70 149 
70 152 
70 153 
70 155 
70 158 
70 160 
71 72 
71 81 
71 84 
71 86 
71 88 
71 89 
71 92 
71 93 
71 96 
71 97 
71 99 
71 101 
71 103 
71 106 
71 108 
71 109 
71 111 
71 114 
71 115 
71 117 
71 120 
71 122 
71 123 
71 125 
71 127 
71 130 
71 131 
71 134 
71 135 
71 138 
71 140 
71 142 
71 144 
71 145 
71 147 
71 150 
71 152 
71 153 
71 156 
71 158 
71 159 
72 82 
72 83 
72 85 
72 87 
72 90 
72 91 
72 94 
72 95 
72 98 
72 100 
72 102 
72 104 
72 105 
72 107 
72 110 
72 112 
72 113 
72 116 
72 118 
72 119 
72 121 
72 124 
72 126 
72 128 
72 129 
72 132 
72 133 
72 136 
72 137 
72 139 
72 141 
72 143 
72 146 
72 148 
72 149 
72 151 
72 154 
72 155 
72 157 
72 160 
73 74 
73 81 
73 84 
73 86 
73 88 
73 90 
73 91 
73 94 
73 95 
73 98 
73 99 
73 101 
73 103 
73 105 
73 108 
73 110 
73 111 
73 113 
73 116 
73 117 
73 119 
73 122 
73 123 
73 125 
73 127 
73 129 
73 132 
73 133 
73 136 
73 137 
73 140 
73 142 
73 144 
73 146 
73 147 
73 149 
73 152 
73 154 
73 155 
73 158 
73 160 
74 82 
74 83 
74 85 
74 87 
74 89 
74 92 
74 93 
74 96 
74 97 
74 100 
74 102 
74 104 
74 106 
74 107 
74 109 
74 112 
74 114 
74 115 
74 118 
74 120 
74 121 
74 124 
74 126 
74 128 
74 130 
74 131 
74 134 
74 135 
74 138 
74 139 
74 141 
74 143 
74 145 
74 148 
74 150 
74 151 
74 153 
74 156 
74 157 
74 159 
75 76 
75 81 
75 83 
75 86 
75 88 
75 90 
75 92 
75 93 
75 96 
75 97 
75 100 
75 101 
75 103 
75 105 
75 107 
75 110 
75 112 
75 113 
75 115 
75 118 
75 119 
75 122 
75 124 
75 125 
75 127 
75 129 
75 131 
75 134 
75 135 
75 138 
75 139 
75 142 
75 144 
75 146 
75 148 
75 149 
75 151 
75 154 
75 156 
75 157 
75 160 
76 82 
76 84 
76 85 
76 87 
76 89 
76 91 
76 94 
76 95 
76 98 
76 99 
76 102 
76 104 
76 106 
76 108 
76 109 
76 111 
76 114 
76 116 
76 117 
76 120 
76 121 
76 123 
76 126 
76 128 
76 130 
76 132 
76 133 
76 136 
76 137 
76 140 
76 141 
76 143 
76 145 
76 147 
76 150 
76 152 
76 153 
76 155 
76 158 
76 159 
77 78 
77 81 
77 83 
77 85 
77 88 
77 90 
77 92 
77 94 
77 95 
77 98 
77 99 
77 102 
77 103 
77 105 
77 107 
77 109 
77 112 
77 114 
77 115 
77 117 
77 120 
77 122 
77 124 
77 126 
77 127 
77 129 
77 131 
77 133 
77 136 
77 137 
77 140 
77 141 
77 144 
77 146 
77 148 
77 150 
77 151 
77 153 
77 156 
77 158 
77 159 
78 82 
78 84 
78 86 
78 87 
78 89 
78 91 
78 93 
78 96 
78 97 
78 100 
78 101 
78 104 
78 106 
78 108 
78 110 
78 111 
78 113 
78 116 
78 118 
78 119 
78 121 
78 123 
78 125 
78 128 
78 130 
78 132 
78 134 
78 135 
78 138 
78 139 
78 142 
78 143 
78 145 
78 147 
78 149 
78 152 
78 154 
78 155 
78 157 
78 160 
79 80 
79 81 
79 84 
79 85 
79 87 
79 90 
79 92 
79 94 
79 96 
79 97 
79 100 
79 101 
79 104 
79 105 
79 107 
79 109 
79 111 
79 114 
79 116 
79 117 
79 119 
79 122 
79 123 
79 126 
79 128 
79 129 
79 131 
79 133 
79 135 
79 138 
79 139 
79 142 
79 143 
79 146 
79 148 
79 150 
79 152 
79 153 
79 155 
79 158 
79 160 
80 82 
80 83 
80 86 
80 88 
80 89 
80 91 
80 93 
80 95 
80 98 
80 99 
80 102 
80 103 
80 106 
80 108 
80 110 
80 112 
80 113 
80 115 
80 118 
80 120 
80 121 
80 124 
80 125 
80 127 
80 130 
80 132 
80 134 
80 136 
80 137 
80 140 
80 141 
80 144 
80 145 
80 147 
80 149 
80 151 
80 154 
80 156 
80 157 
80 159 
81 82 
83 84 
85 86 
87 88 
89 90 
91 92 
93 94 
95 96 
97 98 
99 100 
101 102 
103 104 
105 106 
107 108 
109 110 
111 112 
113 114 
115 116 
117 118 
119 120 
121 122 
123 124 
125 126 
127 128 
129 130 
131 132 
133 134 
135 136 
137 138 
139 140 
141 142 
143 144 
145 146 
147 148 
149 150 
151 152 
153 154 
155 156 
157 158 
159 160 
